
Gurobi 10.0.3 (mac64[arm], Python) logging started Sun Dec  3 22:17:35 2023

Set parameter Username
Set parameter LogFile to value "benders"
Gurobi Optimizer version 10.0.3 build v10.0.3rc0 (mac64[arm])

CPU model: Apple M1
Thread count: 8 physical cores, 8 logical processors, using up to 8 threads

Optimize a model with 0 rows, 3 columns and 0 nonzeros
Model fingerprint: 0xb00b2c2a
Coefficient statistics:
  Matrix range     [0e+00, 0e+00]
  Objective range  [1e+00, 2e+01]
  Bounds range     [0e+00, 0e+00]
  RHS range        [0e+00, 0e+00]
Presolve removed 0 rows and 3 columns
Presolve time: 0.01s
Presolve: All rows and columns removed
Iteration    Objective       Primal Inf.    Dual Inf.      Time
       0    0.0000000e+00   0.000000e+00   0.000000e+00      0s

Solved in 0 iterations and 0.02 seconds (0.00 work units)
Optimal objective  0.000000000e+00
Gurobi Optimizer version 10.0.3 build v10.0.3rc0 (mac64[arm])

CPU model: Apple M1
Thread count: 8 physical cores, 8 logical processors, using up to 8 threads

Optimize a model with 0 rows, 3 columns and 0 nonzeros
Coefficient statistics:
  Matrix range     [0e+00, 0e+00]
  Objective range  [1e+00, 2e+01]
  Bounds range     [0e+00, 0e+00]
  RHS range        [0e+00, 0e+00]

Solved in 0 iterations and 0.00 seconds (0.00 work units)
Optimal objective  0.000000000e+00
Gurobi Optimizer version 10.0.3 build v10.0.3rc0 (mac64[arm])

CPU model: Apple M1
Thread count: 8 physical cores, 8 logical processors, using up to 8 threads

Optimize a model with 0 rows, 3 columns and 0 nonzeros
Coefficient statistics:
  Matrix range     [0e+00, 0e+00]
  Objective range  [1e+00, 2e+01]
  Bounds range     [0e+00, 0e+00]
  RHS range        [0e+00, 0e+00]

Solved in 0 iterations and 0.01 seconds (0.00 work units)
Optimal objective  0.000000000e+00
Gurobi Optimizer version 10.0.3 build v10.0.3rc0 (mac64[arm])

CPU model: Apple M1
Thread count: 8 physical cores, 8 logical processors, using up to 8 threads

Optimize a model with 0 rows, 3 columns and 0 nonzeros
Coefficient statistics:
  Matrix range     [0e+00, 0e+00]
  Objective range  [1e+00, 2e+01]
  Bounds range     [0e+00, 0e+00]
  RHS range        [0e+00, 0e+00]

Solved in 0 iterations and 0.00 seconds (0.00 work units)
Optimal objective  0.000000000e+00
Gurobi Optimizer version 10.0.3 build v10.0.3rc0 (mac64[arm])

CPU model: Apple M1
Thread count: 8 physical cores, 8 logical processors, using up to 8 threads

Optimize a model with 0 rows, 3 columns and 0 nonzeros
Coefficient statistics:
  Matrix range     [0e+00, 0e+00]
  Objective range  [1e+00, 2e+01]
  Bounds range     [0e+00, 0e+00]
  RHS range        [0e+00, 0e+00]

Solved in 0 iterations and 0.02 seconds (0.00 work units)
Optimal objective  0.000000000e+00
Gurobi Optimizer version 10.0.3 build v10.0.3rc0 (mac64[arm])

CPU model: Apple M1
Thread count: 8 physical cores, 8 logical processors, using up to 8 threads

Optimize a model with 0 rows, 3 columns and 0 nonzeros
Coefficient statistics:
  Matrix range     [0e+00, 0e+00]
  Objective range  [1e+00, 2e+01]
  Bounds range     [0e+00, 0e+00]
  RHS range        [0e+00, 0e+00]

Solved in 0 iterations and 0.00 seconds (0.00 work units)
Optimal objective  0.000000000e+00
Gurobi Optimizer version 10.0.3 build v10.0.3rc0 (mac64[arm])

CPU model: Apple M1
Thread count: 8 physical cores, 8 logical processors, using up to 8 threads

Optimize a model with 0 rows, 3 columns and 0 nonzeros
Coefficient statistics:
  Matrix range     [0e+00, 0e+00]
  Objective range  [1e+00, 2e+01]
  Bounds range     [0e+00, 0e+00]
  RHS range        [0e+00, 0e+00]

Solved in 0 iterations and 0.00 seconds (0.00 work units)
Optimal objective  0.000000000e+00
Gurobi Optimizer version 10.0.3 build v10.0.3rc0 (mac64[arm])

CPU model: Apple M1
Thread count: 8 physical cores, 8 logical processors, using up to 8 threads

Optimize a model with 0 rows, 3 columns and 0 nonzeros
Coefficient statistics:
  Matrix range     [0e+00, 0e+00]
  Objective range  [1e+00, 2e+01]
  Bounds range     [0e+00, 0e+00]
  RHS range        [0e+00, 0e+00]

Solved in 0 iterations and 0.00 seconds (0.00 work units)
Optimal objective  0.000000000e+00
Gurobi Optimizer version 10.0.3 build v10.0.3rc0 (mac64[arm])

CPU model: Apple M1
Thread count: 8 physical cores, 8 logical processors, using up to 8 threads

Optimize a model with 2 rows, 3 columns and 6 nonzeros
Model fingerprint: 0x7f379f5d
Coefficient statistics:
  Matrix range     [2e+00, 4e+00]
  Objective range  [8e+00, 1e+01]
  Bounds range     [0e+00, 0e+00]
  RHS range        [2e+02, 3e+02]
Presolve time: 0.01s
Presolved: 2 rows, 3 columns, 6 nonzeros

Iteration    Objective       Primal Inf.    Dual Inf.      Time
       0    1.2000000e+03   9.500000e+01   0.000000e+00      0s
       1    1.2000000e+03   0.000000e+00   0.000000e+00      0s

Solved in 1 iterations and 0.01 seconds (0.00 work units)
Optimal objective  1.200000000e+03
Gurobi Optimizer version 10.0.3 build v10.0.3rc0 (mac64[arm])

CPU model: Apple M1
Thread count: 8 physical cores, 8 logical processors, using up to 8 threads

Optimize a model with 2 rows, 3 columns and 6 nonzeros
Coefficient statistics:
  Matrix range     [2e+00, 4e+00]
  Objective range  [8e+00, 1e+01]
  Bounds range     [0e+00, 0e+00]
  RHS range        [2e+02, 3e+02]
Iteration    Objective       Primal Inf.    Dual Inf.      Time
       0    1.2000000e+03   0.000000e+00   0.000000e+00      0s

Solved in 0 iterations and 0.01 seconds (0.00 work units)
Optimal objective  1.200000000e+03
Gurobi Optimizer version 10.0.3 build v10.0.3rc0 (mac64[arm])

CPU model: Apple M1
Thread count: 8 physical cores, 8 logical processors, using up to 8 threads

Optimize a model with 3 rows, 2 columns and 6 nonzeros
Model fingerprint: 0x865ab4df
Coefficient statistics:
  Matrix range     [2e+00, 4e+00]
  Objective range  [2e+02, 3e+02]
  Bounds range     [0e+00, 0e+00]
  RHS range        [8e+00, 1e+01]
Presolve time: 0.01s
Presolved: 3 rows, 2 columns, 6 nonzeros

Iteration    Objective       Primal Inf.    Dual Inf.      Time
       0    5.2000000e+32   4.000000e+30   5.200000e+02      0s
       1    1.2000000e+03   0.000000e+00   0.000000e+00      0s

Solved in 1 iterations and 0.01 seconds (0.00 work units)
Optimal objective  1.200000000e+03
Gurobi Optimizer version 10.0.3 build v10.0.3rc0 (mac64[arm])

CPU model: Apple M1
Thread count: 8 physical cores, 8 logical processors, using up to 8 threads

Optimize a model with 1 rows, 3 columns and 3 nonzeros
Coefficient statistics:
  Matrix range     [1e+00, 2e+01]
  Objective range  [1e+00, 2e+01]
  Bounds range     [0e+00, 0e+00]
  RHS range        [1e+03, 1e+03]
Iteration    Objective       Primal Inf.    Dual Inf.      Time
       0    0.0000000e+00   1.500000e+02   0.000000e+00      0s
       1    1.0800000e+03   0.000000e+00   0.000000e+00      0s

Solved in 1 iterations and 0.01 seconds (0.00 work units)
Optimal objective  1.080000000e+03
Gurobi Optimizer version 10.0.3 build v10.0.3rc0 (mac64[arm])

CPU model: Apple M1
Thread count: 8 physical cores, 8 logical processors, using up to 8 threads

Optimize a model with 2 rows, 3 columns and 6 nonzeros
Coefficient statistics:
  Matrix range     [2e+00, 4e+00]
  Objective range  [8e+00, 1e+01]
  Bounds range     [0e+00, 0e+00]
  RHS range        [4e+01, 4e+01]
Iteration    Objective       Primal Inf.    Dual Inf.      Time
       0    1.4210855e-14   1.000000e+01   0.000000e+00      0s

Solved in 0 iterations and 0.01 seconds (0.00 work units)
Infeasible model
Gurobi Optimizer version 10.0.3 build v10.0.3rc0 (mac64[arm])

CPU model: Apple M1
Thread count: 8 physical cores, 8 logical processors, using up to 8 threads

Optimize a model with 2 rows, 3 columns and 6 nonzeros
Coefficient statistics:
  Matrix range     [2e+00, 4e+00]
  Objective range  [8e+00, 1e+01]
  Bounds range     [0e+00, 0e+00]
  RHS range        [4e+01, 4e+01]
Iteration    Objective       Primal Inf.    Dual Inf.      Time
       0    1.4210855e-14   1.000000e+01   0.000000e+00      0s

Solved in 0 iterations and 0.01 seconds (0.00 work units)
Infeasible model
Gurobi Optimizer version 10.0.3 build v10.0.3rc0 (mac64[arm])

CPU model: Apple M1
Thread count: 8 physical cores, 8 logical processors, using up to 8 threads

Optimize a model with 3 rows, 2 columns and 6 nonzeros
Coefficient statistics:
  Matrix range     [2e+00, 4e+00]
  Objective range  [4e+01, 4e+01]
  Bounds range     [0e+00, 0e+00]
  RHS range        [8e+00, 1e+01]
Iteration    Objective       Primal Inf.    Dual Inf.      Time
       0    4.0000000e+31   2.000000e+30   4.000000e+01      0s
       1    8.0000000e+01   0.000000e+00   0.000000e+00      0s

Solved in 1 iterations and 0.01 seconds (0.00 work units)
Optimal objective  8.000000000e+01
Gurobi Optimizer version 10.0.3 build v10.0.3rc0 (mac64[arm])

CPU model: Apple M1
Thread count: 8 physical cores, 8 logical processors, using up to 8 threads

Optimize a model with 3 rows, 2 columns and 6 nonzeros
Coefficient statistics:
  Matrix range     [2e+00, 4e+00]
  Objective range  [4e+01, 4e+01]
  Bounds range     [0e+00, 0e+00]
  RHS range        [8e+00, 1e+01]
Iteration    Objective       Primal Inf.    Dual Inf.      Time
       0    8.0000000e+01   0.000000e+00   0.000000e+00      0s

Solved in 0 iterations and 0.00 seconds (0.00 work units)
Optimal objective  8.000000000e+01

Gurobi 10.0.3 (mac64[arm], Python) logging started Tue Dec  5 22:42:31 2023

Set parameter Username
Set parameter LogFile to value "benders"
Gurobi Optimizer version 10.0.3 build v10.0.3rc0 (mac64[arm])

CPU model: Apple M1
Thread count: 8 physical cores, 8 logical processors, using up to 8 threads

Optimize a model with 0 rows, 3 columns and 0 nonzeros
Model fingerprint: 0xb00b2c2a
Coefficient statistics:
  Matrix range     [0e+00, 0e+00]
  Objective range  [1e+00, 2e+01]
  Bounds range     [0e+00, 0e+00]
  RHS range        [0e+00, 0e+00]
Presolve removed 0 rows and 3 columns
Presolve time: 0.00s
Presolve: All rows and columns removed
Iteration    Objective       Primal Inf.    Dual Inf.      Time
       0    0.0000000e+00   0.000000e+00   0.000000e+00      0s

Solved in 0 iterations and 0.01 seconds (0.00 work units)
Optimal objective  0.000000000e+00
Gurobi Optimizer version 10.0.3 build v10.0.3rc0 (mac64[arm])

CPU model: Apple M1
Thread count: 8 physical cores, 8 logical processors, using up to 8 threads

Optimize a model with 0 rows, 3 columns and 0 nonzeros
Model fingerprint: 0xb00b2c2a
Coefficient statistics:
  Matrix range     [0e+00, 0e+00]
  Objective range  [1e+00, 2e+01]
  Bounds range     [0e+00, 0e+00]
  RHS range        [0e+00, 0e+00]
Presolve removed 0 rows and 3 columns
Presolve time: 0.01s
Presolve: All rows and columns removed
Iteration    Objective       Primal Inf.    Dual Inf.      Time
       0    0.0000000e+00   0.000000e+00   0.000000e+00      0s

Solved in 0 iterations and 0.01 seconds (0.00 work units)
Optimal objective  0.000000000e+00
Gurobi Optimizer version 10.0.3 build v10.0.3rc0 (mac64[arm])

CPU model: Apple M1
Thread count: 8 physical cores, 8 logical processors, using up to 8 threads

Optimize a model with 0 rows, 3 columns and 0 nonzeros
Model fingerprint: 0xb00b2c2a
Coefficient statistics:
  Matrix range     [0e+00, 0e+00]
  Objective range  [1e+00, 2e+01]
  Bounds range     [0e+00, 0e+00]
  RHS range        [0e+00, 0e+00]
Presolve removed 0 rows and 3 columns
Presolve time: 0.00s
Presolve: All rows and columns removed
Iteration    Objective       Primal Inf.    Dual Inf.      Time
       0    0.0000000e+00   0.000000e+00   0.000000e+00      0s

Solved in 0 iterations and 0.01 seconds (0.00 work units)
Optimal objective  0.000000000e+00
Gurobi Optimizer version 10.0.3 build v10.0.3rc0 (mac64[arm])

CPU model: Apple M1
Thread count: 8 physical cores, 8 logical processors, using up to 8 threads

Optimize a model with 0 rows, 3 columns and 0 nonzeros
Coefficient statistics:
  Matrix range     [0e+00, 0e+00]
  Objective range  [1e+00, 2e+01]
  Bounds range     [0e+00, 0e+00]
  RHS range        [0e+00, 0e+00]

Solved in 0 iterations and 0.00 seconds (0.00 work units)
Optimal objective  0.000000000e+00
Gurobi Optimizer version 10.0.3 build v10.0.3rc0 (mac64[arm])

CPU model: Apple M1
Thread count: 8 physical cores, 8 logical processors, using up to 8 threads

Optimize a model with 3 rows, 2 columns and 6 nonzeros
Model fingerprint: 0x865ab4df
Coefficient statistics:
  Matrix range     [2e+00, 4e+00]
  Objective range  [2e+02, 3e+02]
  Bounds range     [0e+00, 0e+00]
  RHS range        [8e+00, 1e+01]
Presolve time: 0.01s
Presolved: 3 rows, 2 columns, 6 nonzeros

Iteration    Objective       Primal Inf.    Dual Inf.      Time
       0    5.2000000e+32   4.000000e+30   5.200000e+02      0s
       1    1.2000000e+03   0.000000e+00   0.000000e+00      0s

Solved in 1 iterations and 0.01 seconds (0.00 work units)
Optimal objective  1.200000000e+03
Gurobi Optimizer version 10.0.3 build v10.0.3rc0 (mac64[arm])

CPU model: Apple M1
Thread count: 8 physical cores, 8 logical processors, using up to 8 threads

Optimize a model with 3 rows, 2 columns and 6 nonzeros
Coefficient statistics:
  Matrix range     [2e+00, 4e+00]
  Objective range  [2e+02, 3e+02]
  Bounds range     [0e+00, 0e+00]
  RHS range        [8e+00, 1e+01]
Iteration    Objective       Primal Inf.    Dual Inf.      Time
       0    1.2000000e+03   0.000000e+00   0.000000e+00      0s

Solved in 0 iterations and 0.01 seconds (0.00 work units)
Optimal objective  1.200000000e+03
Gurobi Optimizer version 10.0.3 build v10.0.3rc0 (mac64[arm])

CPU model: Apple M1
Thread count: 8 physical cores, 8 logical processors, using up to 8 threads

Optimize a model with 3 rows, 2 columns and 6 nonzeros
Coefficient statistics:
  Matrix range     [2e+00, 4e+00]
  Objective range  [2e+02, 3e+02]
  Bounds range     [0e+00, 0e+00]
  RHS range        [8e+00, 1e+01]
Iteration    Objective       Primal Inf.    Dual Inf.      Time
       0    1.2000000e+03   0.000000e+00   0.000000e+00      0s

Solved in 0 iterations and 0.00 seconds (0.00 work units)
Optimal objective  1.200000000e+03
Gurobi Optimizer version 10.0.3 build v10.0.3rc0 (mac64[arm])

CPU model: Apple M1
Thread count: 8 physical cores, 8 logical processors, using up to 8 threads

Optimize a model with 3 rows, 2 columns and 6 nonzeros
Coefficient statistics:
  Matrix range     [2e+00, 4e+00]
  Objective range  [2e+02, 3e+02]
  Bounds range     [0e+00, 0e+00]
  RHS range        [8e+00, 1e+01]
Iteration    Objective       Primal Inf.    Dual Inf.      Time
       0    1.2000000e+03   0.000000e+00   0.000000e+00      0s

Solved in 0 iterations and 0.00 seconds (0.00 work units)
Optimal objective  1.200000000e+03
Gurobi Optimizer version 10.0.3 build v10.0.3rc0 (mac64[arm])

CPU model: Apple M1
Thread count: 8 physical cores, 8 logical processors, using up to 8 threads

Optimize a model with 1 rows, 3 columns and 3 nonzeros
Coefficient statistics:
  Matrix range     [1e+00, 2e+01]
  Objective range  [1e+00, 2e+01]
  Bounds range     [0e+00, 0e+00]
  RHS range        [1e+03, 1e+03]
Iteration    Objective       Primal Inf.    Dual Inf.      Time
       0    0.0000000e+00   1.500000e+02   0.000000e+00      0s
       1    1.0800000e+03   0.000000e+00   0.000000e+00      0s

Solved in 1 iterations and 0.01 seconds (0.00 work units)
Optimal objective  1.080000000e+03
Gurobi Optimizer version 10.0.3 build v10.0.3rc0 (mac64[arm])

CPU model: Apple M1
Thread count: 8 physical cores, 8 logical processors, using up to 8 threads

Optimize a model with 3 rows, 2 columns and 6 nonzeros
Coefficient statistics:
  Matrix range     [2e+00, 4e+00]
  Objective range  [4e+01, 4e+01]
  Bounds range     [0e+00, 0e+00]
  RHS range        [8e+00, 1e+01]
Iteration    Objective       Primal Inf.    Dual Inf.      Time
       0    4.0000000e+31   2.000000e+30   4.000000e+01      0s
       1    8.0000000e+01   0.000000e+00   0.000000e+00      0s

Solved in 1 iterations and 0.00 seconds (0.00 work units)
Optimal objective  8.000000000e+01
Gurobi Optimizer version 10.0.3 build v10.0.3rc0 (mac64[arm])

CPU model: Apple M1
Thread count: 8 physical cores, 8 logical processors, using up to 8 threads

Optimize a model with 3 rows, 2 columns and 6 nonzeros
Coefficient statistics:
  Matrix range     [2e+00, 4e+00]
  Objective range  [4e+01, 4e+01]
  Bounds range     [0e+00, 0e+00]
  RHS range        [8e+00, 1e+01]
Iteration    Objective       Primal Inf.    Dual Inf.      Time
       0    8.0000000e+01   0.000000e+00   0.000000e+00      0s

Solved in 0 iterations and 0.00 seconds (0.00 work units)
Optimal objective  8.000000000e+01
Gurobi Optimizer version 10.0.3 build v10.0.3rc0 (mac64[arm])

CPU model: Apple M1
Thread count: 8 physical cores, 8 logical processors, using up to 8 threads

Optimize a model with 2 rows, 3 columns and 6 nonzeros
Coefficient statistics:
  Matrix range     [1e+00, 2e+01]
  Objective range  [1e+00, 2e+01]
  Bounds range     [0e+00, 0e+00]
  RHS range        [4e+02, 1e+03]
Iteration    Objective       Primal Inf.    Dual Inf.      Time
       0    1.0800000e+03   4.000000e+01   0.000000e+00      0s
       1    1.0914286e+03   0.000000e+00   0.000000e+00      0s

Solved in 1 iterations and 0.00 seconds (0.00 work units)
Optimal objective  1.091428571e+03
Gurobi Optimizer version 10.0.3 build v10.0.3rc0 (mac64[arm])

CPU model: Apple M1
Thread count: 8 physical cores, 8 logical processors, using up to 8 threads

Optimize a model with 3 rows, 2 columns and 6 nonzeros
Coefficient statistics:
  Matrix range     [2e+00, 4e+00]
  Objective range  [3e+01, 6e+01]
  Bounds range     [0e+00, 0e+00]
  RHS range        [8e+00, 1e+01]
Iteration    Objective       Primal Inf.    Dual Inf.      Time
       0    1.1428571e+02   0.000000e+00   0.000000e+00      0s

Solved in 0 iterations and 0.01 seconds (0.00 work units)
Optimal objective  1.142857143e+02

Gurobi 10.0.3 (mac64[arm], Python) logging started Tue Dec  5 22:59:30 2023

Set parameter Username
Set parameter LogFile to value "benders"
Gurobi Optimizer version 10.0.3 build v10.0.3rc0 (mac64[arm])

CPU model: Apple M1
Thread count: 8 physical cores, 8 logical processors, using up to 8 threads

Optimize a model with 0 rows, 3 columns and 0 nonzeros
Model fingerprint: 0xb00b2c2a
Coefficient statistics:
  Matrix range     [0e+00, 0e+00]
  Objective range  [1e+00, 2e+01]
  Bounds range     [0e+00, 0e+00]
  RHS range        [0e+00, 0e+00]
Presolve removed 0 rows and 3 columns
Presolve time: 0.00s
Presolve: All rows and columns removed
Iteration    Objective       Primal Inf.    Dual Inf.      Time
       0    0.0000000e+00   0.000000e+00   0.000000e+00      0s

Solved in 0 iterations and 0.00 seconds (0.00 work units)
Optimal objective  0.000000000e+00
Gurobi Optimizer version 10.0.3 build v10.0.3rc0 (mac64[arm])

CPU model: Apple M1
Thread count: 8 physical cores, 8 logical processors, using up to 8 threads

Optimize a model with 3 rows, 2 columns and 6 nonzeros
Model fingerprint: 0x865ab4df
Coefficient statistics:
  Matrix range     [2e+00, 4e+00]
  Objective range  [2e+02, 3e+02]
  Bounds range     [0e+00, 0e+00]
  RHS range        [8e+00, 1e+01]
Presolve time: 0.00s
Presolved: 3 rows, 2 columns, 6 nonzeros

Iteration    Objective       Primal Inf.    Dual Inf.      Time
       0    5.2000000e+32   4.000000e+30   5.200000e+02      0s
       1    1.2000000e+03   0.000000e+00   0.000000e+00      0s

Solved in 1 iterations and 0.00 seconds (0.00 work units)
Optimal objective  1.200000000e+03
Gurobi Optimizer version 10.0.3 build v10.0.3rc0 (mac64[arm])

CPU model: Apple M1
Thread count: 8 physical cores, 8 logical processors, using up to 8 threads

Optimize a model with 3 rows, 2 columns and 6 nonzeros
Coefficient statistics:
  Matrix range     [2e+00, 4e+00]
  Objective range  [2e+02, 3e+02]
  Bounds range     [0e+00, 0e+00]
  RHS range        [8e+00, 1e+01]
Iteration    Objective       Primal Inf.    Dual Inf.      Time
       0    1.2000000e+03   0.000000e+00   0.000000e+00      0s

Solved in 0 iterations and 0.00 seconds (0.00 work units)
Optimal objective  1.200000000e+03
Gurobi Optimizer version 10.0.3 build v10.0.3rc0 (mac64[arm])

CPU model: Apple M1
Thread count: 8 physical cores, 8 logical processors, using up to 8 threads

Optimize a model with 1 rows, 3 columns and 3 nonzeros
Coefficient statistics:
  Matrix range     [1e+00, 2e+01]
  Objective range  [1e+00, 2e+01]
  Bounds range     [0e+00, 0e+00]
  RHS range        [1e+03, 1e+03]
Iteration    Objective       Primal Inf.    Dual Inf.      Time
       0    0.0000000e+00   1.500000e+02   0.000000e+00      0s
       1    1.0800000e+03   0.000000e+00   0.000000e+00      0s

Solved in 1 iterations and 0.00 seconds (0.00 work units)
Optimal objective  1.080000000e+03
Gurobi Optimizer version 10.0.3 build v10.0.3rc0 (mac64[arm])

CPU model: Apple M1
Thread count: 8 physical cores, 8 logical processors, using up to 8 threads

Optimize a model with 3 rows, 2 columns and 6 nonzeros
Coefficient statistics:
  Matrix range     [2e+00, 4e+00]
  Objective range  [4e+01, 4e+01]
  Bounds range     [0e+00, 0e+00]
  RHS range        [8e+00, 1e+01]
Iteration    Objective       Primal Inf.    Dual Inf.      Time
       0    4.0000000e+31   2.000000e+30   4.000000e+01      0s
       1    8.0000000e+01   0.000000e+00   0.000000e+00      0s

Solved in 1 iterations and 0.00 seconds (0.00 work units)
Optimal objective  8.000000000e+01
Gurobi Optimizer version 10.0.3 build v10.0.3rc0 (mac64[arm])

CPU model: Apple M1
Thread count: 8 physical cores, 8 logical processors, using up to 8 threads

Optimize a model with 2 rows, 3 columns and 6 nonzeros
Coefficient statistics:
  Matrix range     [1e+00, 2e+01]
  Objective range  [1e+00, 2e+01]
  Bounds range     [0e+00, 0e+00]
  RHS range        [4e+02, 1e+03]
Iteration    Objective       Primal Inf.    Dual Inf.      Time
       0    1.0800000e+03   4.000000e+01   0.000000e+00      0s
       1    1.0914286e+03   0.000000e+00   0.000000e+00      0s

Solved in 1 iterations and 0.01 seconds (0.00 work units)
Optimal objective  1.091428571e+03
Gurobi Optimizer version 10.0.3 build v10.0.3rc0 (mac64[arm])

CPU model: Apple M1
Thread count: 8 physical cores, 8 logical processors, using up to 8 threads

Optimize a model with 3 rows, 2 columns and 6 nonzeros
Coefficient statistics:
  Matrix range     [2e+00, 4e+00]
  Objective range  [3e+01, 6e+01]
  Bounds range     [0e+00, 0e+00]
  RHS range        [8e+00, 1e+01]
Iteration    Objective       Primal Inf.    Dual Inf.      Time
       0    1.1428571e+02   0.000000e+00   0.000000e+00      0s

Solved in 0 iterations and 0.00 seconds (0.00 work units)
Optimal objective  1.142857143e+02

Gurobi 10.0.3 (mac64[arm], Python) logging started Wed Dec  6 21:37:59 2023

Set parameter Username
Set parameter LogFile to value "benders"

Gurobi 10.0.3 (mac64[arm], Python) logging started Wed Dec  6 21:38:12 2023

Set parameter Username
Set parameter LogFile to value "benders"

Gurobi 10.0.3 (mac64[arm], Python) logging started Wed Dec  6 21:38:45 2023

Set parameter Username
Set parameter LogFile to value "benders"

Gurobi 10.0.3 (mac64[arm], Python) logging started Wed Dec  6 21:38:52 2023

Set parameter Username
Set parameter LogFile to value "benders"
